NAME: tsp30_9
COMMENT: 30-tsp problem (Padberg/Rinaldi)
TYPE: TSP
DIMENSION: 30
EDGE_WEIGHT_TYPE : EUC_2D
NODE_COORD_SECTION
1 17 6
2 23 11
3 27 8
4 26 15
5 5 7
6 40 9
7 22 17
8 12 9
9 21 6
10 33 26
11 36 21
12 18 5
13 24 39
14 16 20
15 6 37
16 12 8
17 1 21
18 13 20
19 4 10
20 31 36
21 25 0
22 32 34
23 34 15
24 7 34
25 17 1
26 39 8
27 13 23
28 27 1
29 19 6
30 20 4
